<?xml version = "1.0" standalone="yes"?>
<!-- This file has been generated by DOcplex version 2.23.222  -->
<CPLEXSolution version="1.0">
 <header
   problemName="CVRP"
   objectiveValue="12209.7"
  />
 <variables>
  <variable name="x_0_3" index="2" value="1.00000"/>
  <variable name="x_0_5" index="4" value="1.00000"/>
  <variable name="x_0_6" index="5" value="1.00000"/>
  <variable name="x_0_7" index="6" value="1.00000"/>
  <variable name="x_0_8" index="7" value="1.00000"/>
  <variable name="x_0_10" index="9" value="1.00000"/>
  <variable name="x_0_11" index="10" value="1.00000"/>
  <variable name="x_0_14" index="13" value="1.00000"/>
  <variable name="x_0_15" index="14" value="1.00000"/>
  <variable name="x_0_16" index="15" value="1.00000"/>
  <variable name="x_0_17" index="16" value="1.00000"/>
  <variable name="x_0_18" index="17" value="1.00000"/>
  <variable name="x_0_19" index="18" value="1.00000"/>
  <variable name="x_0_20" index="19" value="1.00000"/>
  <variable name="x_1_0" index="20" value="1.00000"/>
  <variable name="x_2_0" index="40" value="1.00000"/>
  <variable name="x_3_13" index="72" value="1.00000"/>
  <variable name="x_4_0" index="80" value="1.00000"/>
  <variable name="x_5_0" index="100" value="1.00000"/>
  <variable name="x_6_1" index="121" value="1.00000"/>
  <variable name="x_7_0" index="140" value="1.00000"/>
  <variable name="x_8_0" index="160" value="1.00000"/>
  <variable name="x_9_4" index="184" value="1.00000"/>
  <variable name="x_10_0" index="200" value="1.00000"/>
  <variable name="x_11_0" index="220" value="1.00000"/>
  <variable name="x_12_0" index="240" value="1.00000"/>
  <variable name="x_13_9" index="269" value="1.00000"/>
  <variable name="x_14_0" index="280" value="1.00000"/>
  <variable name="x_15_0" index="300" value="1.00000"/>
  <variable name="x_16_0" index="320" value="1.00000"/>
  <variable name="x_17_0" index="340" value="1.00000"/>
  <variable name="x_18_0" index="360" value="1.00000"/>
  <variable name="x_19_12" index="392" value="1.00000"/>
  <variable name="x_20_2" index="402" value="1.00000"/>
  <variable name="u_1" index="420" value="34.00000"/>
  <variable name="u_2" index="421" value="38.00000"/>
  <variable name="u_3" index="422" value="14.00000"/>
  <variable name="u_4" index="423" value="47.00000"/>
  <variable name="u_5" index="424" value="40.00000"/>
  <variable name="u_6" index="425" value="28.00000"/>
  <variable name="u_7" index="426" value="44.00000"/>
  <variable name="u_8" index="427" value="31.00000"/>
  <variable name="u_9" index="428" value="34.00000"/>
  <variable name="u_10" index="429" value="45.00000"/>
  <variable name="u_11" index="430" value="29.00000"/>
  <variable name="u_12" index="431" value="40.00000"/>
  <variable name="u_13" index="432" value="30.00000"/>
  <variable name="u_14" index="433" value="24.00000"/>
  <variable name="u_15" index="434" value="47.00000"/>
  <variable name="u_16" index="435" value="47.00000"/>
  <variable name="u_17" index="436" value="38.00000"/>
  <variable name="u_18" index="437" value="40.00000"/>
  <variable name="u_19" index="438" value="36.00000"/>
  <variable name="u_20" index="439" value="19.00000"/>
 </variables>
</CPLEXSolution>
